files/upTests/tupley32-7-1-0-slits/0001.eprime.solution
language ESSENCE' 1.0
$ minion Nodes: 1
$ minion TotalTime: 0.000631
$ Savile Row TotalTime: 0.261
letting pain_tuple4_tuple2 be [12;int(1)]
letting pain_tuple1 be [2;int(1)]
letting pain_tuple2 be [3;int(1)]
letting pain_tuple3_tuple2 be [6;int(1)]
letting pain_tuple3_tuple1 be [5;int(1)]
letting pain_tuple4_tuple1_tuple2 be [11;int(1)]
letting pain_tuple4_tuple1_tuple1 be [10;int(1)]
